%%%mzn-stat: nodes=94596
%%%mzn-stat: failures=51277
%%%mzn-stat: restarts=388
%%%mzn-stat: variables=21517
%%%mzn-stat: intVars=129
%%%mzn-stat: boolVariables=21386
%%%mzn-stat: propagators=2838
%%%mzn-stat: propagations=27144285
%%%mzn-stat: peakDepth=204
%%%mzn-stat: nogoods=51277
%%%mzn-stat: backjumps=12683
%%%mzn-stat: peakMem=0.00
%%%mzn-stat: time=5.520
%%%mzn-stat: initTime=0.027
%%%mzn-stat: solveTime=5.493
%%%mzn-stat: objective=32
%%%mzn-stat: optTime=5.493
%%%mzn-stat: baseMem=0.00
%%%mzn-stat: trailMem=0.05
%%%mzn-stat: randomSeed=42
32 32
27
3 3 25 12
3 4 26 28
3 5 4 27
3 6 29 26
3 7 7 25
3 8 10 24
3 9 13 23
3 10 16 22
3 11 29 15
3 12 25 0
3 13 26 15
3 14 19 18
3 15 22 0
3 18 19 0
3 22 16 0
3 23 13 0
3 24 10 0
3 25 7 0
3 27 4 0
4 3 0 29
4 4 28 11
4 5 28 6
4 6 28 0
4 7 22 25
4 10 22 15
4 11 0 18
4 18 0 0
% time elapsed: 5.67 s
% time elapsed: 5.67 s
